************************************************************************
file with basedata            : a101_.bas
initial value random generator: 1987
************************************************************************
projects                      :  1
jobs (incl. supersource/sink ):  12
horizon bound                 :  80
RESOURCES
  - renewable                 :  4   R
  - nonrenewable              :  0   N
  - doubly constrained        :  0   D
  - partially renewable       :  0   P
************************************************************************
PROJECT INFORMATION:
prono.  #jobs rel.date duedate tardcost  CPM-Time
    1     10      0       11        3       11
************************************************************************
PRECEDENCE RELATIONS:
jobno.    #modes  #successors   successors
   1        1          3           2   3   4
   2        3          2           5   6
   3        3          2           7   9
   4        3          1           8
   5        3          2           9  10
   6        3          2           9  10
   7        3          1          11
   8        3          2          10  11
   9        3          1          12
  10        3          1          12
  11        3          1          12
  12        1          0        
************************************************************************
REQUESTS/DURATIONS:
jobno. mode duration  R 1  R 2  R 3  R 4
  1      1     0       0    0    0    0
  2      1     1       3    0    0    0
         2     3       0    0    5    0
         3     8       0    0    0    7
  3      1     2       0   10    0    0
         2     3       0    0    4    0
         3     7       0    0    0    3
  4      1     3       0    0    7    0
         2     6       0    0    0    8
         3     9       0    0    5    0
  5      1     3       0    0    5    0
         2     6       9    0    0    0
         3     7       0    5    0    0
  6      1     1       0    0    0    7
         2     4       5    0    0    0
         3     8       0    0    7    0
  7      1     3       0    0    0    8
         2     6       4    0    0    0
         3     9       0    0    0    7
  8      1     4       0    0    0   10
         2     5       0    6    0    0
         3     6       0    0    0    5
  9      1     1       0    0    8    0
         2     2       0    7    0    0
         3    10       0    0    4    0
 10      1     4       0    7    0    0
         2     9       0    0    0    8
         3    10       0    0    6    0
 11      1     1       0    6    0    0
         2     5      10    0    0    0
         3     6       5    0    0    0
 12      1     0       0    0    0    0
************************************************************************
RESOURCE AVAILABILITIES:
  R 1  R 2  R 3  R 4
    4    4    3    5
************************************************************************
